1	1	1	1	2	5	0	0	0	0	0	0
800	1	0	0	0	0	0	0	0	0	0	0
100	1	0	77.75	3.47	1	0	0	0	0	0	0
50	150	0	0	0	0	9999	0	0	99999	0	0
50	75	0	0	0	0	9999	0	0	99999	0	0
50	75	0	0	0	0	9999	0	0	0	0	0
39	26	0	0	0	0	9999	0	0	0	0	0
30	50	10	6	4	101	1237	90	0	0	0	0
58	75	20	15	5	101	1216	90	0	0	0	0
48	40	10	8	2	168	240	90	0	0	0	0
40	15	40	15	25	1090	1164	90	0	0	0	0
25	50	10	5	5	101	1232	90	0	0	0	0

